153 156 159 155 154 165 164 166 167 163 168 162 160 161 112 114 115 116 117 122 123 71 121 120 119 118 106 105 104 103 547 546 545 544 543 541 542 107 110 111 109 108 173 174 175 172 170 171 169 180 181 179 182 183 185 184 194 195 196 197 198 199 200 201 202 204 203 208 207 206 205 209 210 211 212 213 214 215 216 217 223 224 222 221 220 218 219 193 192 191 190 226 225 231 230 229 228 189 227 186 188 187 178 177 176 540 538 539 537 536 484 485 483 482 481 480 479 478 477 476 475 567 473 474 570 569 568 20 19 18 17 8 7 6 5 0 573 572 571 466 467 468 469 470 471 472 494 495 518 519 520 524 525 493 492 491 490 486 487 535 534 488 533 532 489 531 530 529 233 232 234 235 236 528 526 523 521 522 517 516 515 514 527 512 513 511 510 509 237 240 239 238 246 247 245 244 243 242 241 248 249 250 251 252 254 253 255 256 257 260 261 259 258 262 263 264 265 266 267 268 271 272 269 270 296 295 294 293 291 292 273 274 275 290 289 288 276 277 278 279 282 281 280 287 286 285 284 283 334 335 336 337 338 339 333 332 331 330 340 341 344 343 342 366 329 328 327 326 325 324 323 322 373 374 315 314 316 313 312 451 311 310 309 308 307 303 304 306 305 318 317 319 320 321 297 298 299 300 301 302 508 507 506 505 504 503 502 498 501 500 499 453 452 497 496 465 464 463 462 461 460 459 458 457 456 455 454 439 440 441 450 449 448 447 446 442 443 444 445 431 382 386 385 383 384 409 405 406 404 403 402 401 400 399 398 397 407 408 387 388 389 391 393 392 390 381 380 379 378 377 376 375 395 394 396 371 372 370 369 368 367 365 364 346 345 347 348 350 349 358 359 361 362 363 360 357 355 354 353 352 351 415 416 414 413 417 412 356 411 410 418 419 420 421 422 423 424 425 426 427 428 429 430 432 433 434 435 436 438 437 3 2 1 4 9 10 11 16 15 14 13 12 21 23 22 31 24 25 26 27 28 29 30 32 33 34 35 36 37 38 40 41 39 42 43 44 45 46 47 48 49 54 53 52 50 51 84 85 86 90 92 91 93 94 97 552 553 554 555 556 557 558 559 550 560 561 562 563 565 566 564 549 548 551 101 102 100 99 98 96 95 89 87 88 77 78 79 80 81 82 83 55 56 57 58 59 60 61 63 62 64 76 75 74 73 72 65 66 67 68 70 69 124 125 126 127 128 129 130 131 113 132 133 134 135 136 137 138 139 140 141 151 150 149 152 148 147 142 143 144 146 145 158 157